data/CVRPLIB/Vrp-Set-XML100/instances/XML100_3216_05.vrp
NAME : XML100_3216_05
COMMENT : Generated by Queiroga, Sadykov, Uchoa, and Vidal (2021)
TYPE : CVRP
DIMENSION : 101
EDGE_WEIGHT_TYPE : EUC_2D
CAPACITY : 39
NODE_COORD_SECTION
1    0    0   
2    99   109 
3    429  548 
4    694  495 
5    847  425 
6    529  506 
7    712  462 
8    722  716 
9    632  661 
10   581  367 
11   555  664 
12   635  406 
13   650  808 
14   33   314 
15   641  752 
16   230  202 
17   506  937 
18   180  256 
19   499  687 
20   568  504 
21   609  647 
22   607  672 
23   712  602 
24   664  519 
25   635  405 
26   641  755 
27   64   355 
28   601  682 
29   126  244 
30   190  273 
31   506  894 
32   701  602 
33   686  529 
34   94   419 
35   703  531 
36   208  155 
37   79   307 
38   147  245 
39   123  334 
40   668  503 
41   90   131 
42   165  284 
43   533  672 
44   547  525 
45   144  297 
46   154  275 
47   552  661 
48   976  449 
49   212  335 
50   700  595 
51   29   230 
52   65   280 
53   647  431 
54   677  588 
55   769  805 
56   679  575 
57   779  708 
58   646  559 
59   614  686 
60   171  345 
61   60   171 
62   624  488 
63   117  286 
64   669  524 
65   101  218 
66   547  723 
67   593  524 
68   957  955 
69   534  771 
70   546  752 
71   736  589 
72   733  640 
73   57   161 
74   722  729 
75   638  745 
76   138  413 
77   799  448 
78   522  642 
79   321  738 
80   79   219 
81   824  488 
82   115  316 
83   637  810 
84   706  693 
85   744  565 
86   728  664 
87   587  607 
88   721  600 
89   39   272 
90   223  362 
91   125  262 
92   849  586 
93   150  463 
94   186  234 
95   581  544 
96   352  296 
97   699  573 
98   593  594 
99   175  354 
100  752  642 
101  796  554 
DEMAND_SECTION
1    0   
2    1   
3    1   
4    1   
5    1   
6    1   
7    1   
8    1   
9    1   
10   1   
11   1   
12   1   
13   1   
14   1   
15   1   
16   1   
17   1   
18   1   
19   1   
20   1   
21   1   
22   1   
23   1   
24   1   
25   1   
26   1   
27   1   
28   1   
29   1   
30   1   
31   1   
32   1   
33   1   
34   1   
35   1   
36   1   
37   1   
38   1   
39   1   
40   1   
41   1   
42   1   
43   1   
44   1   
45   1   
46   1   
47   1   
48   1   
49   1   
50   1   
51   1   
52   1   
53   1   
54   1   
55   1   
56   1   
57   1   
58   1   
59   1   
60   1   
61   1   
62   1   
63   1   
64   1   
65   1   
66   1   
67   1   
68   1   
69   1   
70   1   
71   1   
72   1   
73   1   
74   1   
75   1   
76   1   
77   1   
78   1   
79   1   
80   1   
81   1   
82   1   
83   1   
84   1   
85   1   
86   1   
87   1   
88   1   
89   1   
90   1   
91   1   
92   1   
93   1   
94   1   
95   1   
96   1   
97   1   
98   1   
99   1   
100  1   
101  1   
DEPOT_SECTION
1
-1
EOF
