data/CVRPLIB/Vrp-Set-XML100/solutions/XML100_3216_05.sol
Route #1: 1 15 95 5 43 19 66 94 97 86 57 53 55 96 49 31 22 87 70 84 100 91 47 4 80 76 6 3 34 32 63 23 39 61 52 11 24 9 35
Route #2: 40 48 89 2 77 18 42 46 10 27 58 21 20 8 71 99 85 83 7 73 56 67 54 12 82 25 14 74 65 69 68 30 16 78 92 75 33 26 13
Route #3: 72 60 79 64 28 90 37 93 17 29 41 45 44 59 98 38 81 62 36 51 88 50
Cost 7407
